Route #1: 1 12 6 2 3 7 13 24 23 22 21 30 35 40 41 36 31 32 43 42 57 50 56 55 67 63 49 48 62 66 75 94 95 82 96 83 76 68 77 87 99 100 88 84 69 78 89 85 71 70 58 59 51 64 72 79 90 97 91 92 98 93 65 74 86 81 80 73 61 53 54 47 39 29 20 11 18 19 10 5 9 17 27 28 38 46 45 60 52 44 37 26 34 33 25 14 8 15 16 4
Cost 45880
